
(set-logic HORN)
(declare-rel assign_286_27_11_abs (Int Int Int Int Int Int Int Int Int Int Int))
(declare-rel assert_277_26_11_abs (Int Int Int Int Int Int Int Int Int Int Int))
(declare-rel while_289_24_1_abs (Int Int Int Int Int Int Int Int Int Int Int))
(declare-rel assign_206_23_8_abs (Int Int Int Int Int Int Int Int Int Int Int))
(declare-rel assign_158_19_5_abs (Int Int Int Int Int Int Int Int Int Int Int))
(declare-rel arrayassign_149_18_5_abs (Int Int Int Int Int Int Int Int Int Int Int))
(declare-rel while_161_16_1_abs (Int Int Int Int Int Int Int Int Int Int Int))
(declare-rel assign_85_15_1_abs (Int Int Int Int Int Int Int Int Int Int Int))
(declare-rel assign_79_12_8_abs (Int Int Int Int Int Int Int Int Int Int Int))
(declare-rel assign_67_11_1_abs (Int Int Int Int Int Int Int Int Int Int Int))
(declare-rel end_abs (Int Int Int Int Int Int Int Int Int Int Int))
(declare-rel start_abs (Int Int Int Int Int Int Int Int Int Int Int));Number of predicates (nodes) = 12
;Number of variables = 5
;Number of clauses = 15
;
(assert (forall ( (vacker_1 Int) (vacker_0 Int) (vacker_11 Int) (vacker_01 Int) (Nb Int) (Na Int) (i Int) (i1 Int) (i2 Int) (i3 Int) (i4 Int)) (=> (and (=> (= i3 i4) (= vacker_0 vacker_1)) (=> (= i1 i2) (= vacker_01 vacker_11))) (start_abs i4 vacker_1 i3 vacker_0 i2 vacker_11 i1 vacker_01 Nb Na i))))
(assert (forall ( (i Int) (Na Int) (Nb Int) (vacker_1 Int) (vacker_0 Int) (vacker_11 Int) (vacker_01 Int) (i1 Int) (i2 Int) (i3 Int) (i4 Int)) (=> (and (=> (= i1 i2) (= vacker_0 vacker_1)) (=> (= i3 i4) (= vacker_01 vacker_11)) (start_abs i3 vacker_01 i3 vacker_01 i1 vacker_0 i1 vacker_0 Nb Na i) (start_abs i3 vacker_01 i3 vacker_01 i1 vacker_0 i2 vacker_1 Nb Na i) (start_abs i3 vacker_01 i3 vacker_01 i2 vacker_1 i1 vacker_0 Nb Na i) (start_abs i3 vacker_01 i3 vacker_01 i2 vacker_1 i2 vacker_1 Nb Na i) (start_abs i3 vacker_01 i4 vacker_11 i1 vacker_0 i1 vacker_0 Nb Na i) (start_abs i3 vacker_01 i4 vacker_11 i1 vacker_0 i2 vacker_1 Nb Na i) (start_abs i3 vacker_01 i4 vacker_11 i2 vacker_1 i1 vacker_0 Nb Na i) (start_abs i3 vacker_01 i4 vacker_11 i2 vacker_1 i2 vacker_1 Nb Na i) (start_abs i4 vacker_11 i3 vacker_01 i1 vacker_0 i1 vacker_0 Nb Na i) (start_abs i4 vacker_11 i3 vacker_01 i1 vacker_0 i2 vacker_1 Nb Na i) (start_abs i4 vacker_11 i3 vacker_01 i2 vacker_1 i1 vacker_0 Nb Na i) (start_abs i4 vacker_11 i3 vacker_01 i2 vacker_1 i2 vacker_1 Nb Na i) (start_abs i4 vacker_11 i4 vacker_11 i1 vacker_0 i1 vacker_0 Nb Na i) (start_abs i4 vacker_11 i4 vacker_11 i1 vacker_0 i2 vacker_1 Nb Na i) (start_abs i4 vacker_11 i4 vacker_11 i2 vacker_1 i1 vacker_0 Nb Na i) (start_abs i4 vacker_11 i4 vacker_11 i2 vacker_1 i2 vacker_1 Nb Na i)) (assign_67_11_1_abs i4 vacker_11 i3 vacker_01 i2 vacker_1 i1 vacker_0 Nb Na i))))
;
;(assign)  Na := Support.random()
(assert (forall ( (rnd Int) (i Int) (Na Int) (Nb Int) (vacker_1 Int) (vacker_0 Int) (vacker_11 Int) (vacker_01 Int) (i1 Int) (i2 Int) (i3 Int) (i4 Int)) (=> (and (=> (= i1 i2) (= vacker_0 vacker_1)) (=> (= i3 i4) (= vacker_01 vacker_11)) (assign_67_11_1_abs i3 vacker_01 i3 vacker_01 i1 vacker_0 i1 vacker_0 Nb Na i) (assign_67_11_1_abs i3 vacker_01 i3 vacker_01 i1 vacker_0 i2 vacker_1 Nb Na i) (assign_67_11_1_abs i3 vacker_01 i3 vacker_01 i2 vacker_1 i1 vacker_0 Nb Na i) (assign_67_11_1_abs i3 vacker_01 i3 vacker_01 i2 vacker_1 i2 vacker_1 Nb Na i) (assign_67_11_1_abs i3 vacker_01 i4 vacker_11 i1 vacker_0 i1 vacker_0 Nb Na i) (assign_67_11_1_abs i3 vacker_01 i4 vacker_11 i1 vacker_0 i2 vacker_1 Nb Na i) (assign_67_11_1_abs i3 vacker_01 i4 vacker_11 i2 vacker_1 i1 vacker_0 Nb Na i) (assign_67_11_1_abs i3 vacker_01 i4 vacker_11 i2 vacker_1 i2 vacker_1 Nb Na i) (assign_67_11_1_abs i4 vacker_11 i3 vacker_01 i1 vacker_0 i1 vacker_0 Nb Na i) (assign_67_11_1_abs i4 vacker_11 i3 vacker_01 i1 vacker_0 i2 vacker_1 Nb Na i) (assign_67_11_1_abs i4 vacker_11 i3 vacker_01 i2 vacker_1 i1 vacker_0 Nb Na i) (assign_67_11_1_abs i4 vacker_11 i3 vacker_01 i2 vacker_1 i2 vacker_1 Nb Na i) (assign_67_11_1_abs i4 vacker_11 i4 vacker_11 i1 vacker_0 i1 vacker_0 Nb Na i) (assign_67_11_1_abs i4 vacker_11 i4 vacker_11 i1 vacker_0 i2 vacker_1 Nb Na i) (assign_67_11_1_abs i4 vacker_11 i4 vacker_11 i2 vacker_1 i1 vacker_0 Nb Na i) (assign_67_11_1_abs i4 vacker_11 i4 vacker_11 i2 vacker_1 i2 vacker_1 Nb Na i)) (assign_79_12_8_abs i4 vacker_11 i3 vacker_01 i2 vacker_1 i1 vacker_0 Nb rnd i))))
;
;(assign)  Nb := Support.random()
(assert (forall ( (rnd Int) (i Int) (Na Int) (Nb Int) (vacker_1 Int) (vacker_0 Int) (vacker_11 Int) (vacker_01 Int) (i1 Int) (i2 Int) (i3 Int) (i4 Int)) (=> (and (=> (= i1 i2) (= vacker_0 vacker_1)) (=> (= i3 i4) (= vacker_01 vacker_11)) (assign_79_12_8_abs i3 vacker_01 i3 vacker_01 i1 vacker_0 i1 vacker_0 Nb Na i) (assign_79_12_8_abs i3 vacker_01 i3 vacker_01 i1 vacker_0 i2 vacker_1 Nb Na i) (assign_79_12_8_abs i3 vacker_01 i3 vacker_01 i2 vacker_1 i1 vacker_0 Nb Na i) (assign_79_12_8_abs i3 vacker_01 i3 vacker_01 i2 vacker_1 i2 vacker_1 Nb Na i) (assign_79_12_8_abs i3 vacker_01 i4 vacker_11 i1 vacker_0 i1 vacker_0 Nb Na i) (assign_79_12_8_abs i3 vacker_01 i4 vacker_11 i1 vacker_0 i2 vacker_1 Nb Na i) (assign_79_12_8_abs i3 vacker_01 i4 vacker_11 i2 vacker_1 i1 vacker_0 Nb Na i) (assign_79_12_8_abs i3 vacker_01 i4 vacker_11 i2 vacker_1 i2 vacker_1 Nb Na i) (assign_79_12_8_abs i4 vacker_11 i3 vacker_01 i1 vacker_0 i1 vacker_0 Nb Na i) (assign_79_12_8_abs i4 vacker_11 i3 vacker_01 i1 vacker_0 i2 vacker_1 Nb Na i) (assign_79_12_8_abs i4 vacker_11 i3 vacker_01 i2 vacker_1 i1 vacker_0 Nb Na i) (assign_79_12_8_abs i4 vacker_11 i3 vacker_01 i2 vacker_1 i2 vacker_1 Nb Na i) (assign_79_12_8_abs i4 vacker_11 i4 vacker_11 i1 vacker_0 i1 vacker_0 Nb Na i) (assign_79_12_8_abs i4 vacker_11 i4 vacker_11 i1 vacker_0 i2 vacker_1 Nb Na i) (assign_79_12_8_abs i4 vacker_11 i4 vacker_11 i2 vacker_1 i1 vacker_0 Nb Na i) (assign_79_12_8_abs i4 vacker_11 i4 vacker_11 i2 vacker_1 i2 vacker_1 Nb Na i)) (assign_85_15_1_abs i4 vacker_11 i3 vacker_01 i2 vacker_1 i1 vacker_0 rnd Na i))))
;
;(assign)  i := Na
(assert (forall ( (i Int) (Na Int) (Nb Int) (vacker_1 Int) (vacker_0 Int) (vacker_11 Int) (vacker_01 Int) (i1 Int) (i2 Int) (i3 Int) (i4 Int)) (=> (and (=> (= i1 i2) (= vacker_0 vacker_1)) (=> (= i3 i4) (= vacker_01 vacker_11)) (assign_85_15_1_abs i3 vacker_01 i3 vacker_01 i1 vacker_0 i1 vacker_0 Nb Na i) (assign_85_15_1_abs i3 vacker_01 i3 vacker_01 i1 vacker_0 i2 vacker_1 Nb Na i) (assign_85_15_1_abs i3 vacker_01 i3 vacker_01 i2 vacker_1 i1 vacker_0 Nb Na i) (assign_85_15_1_abs i3 vacker_01 i3 vacker_01 i2 vacker_1 i2 vacker_1 Nb Na i) (assign_85_15_1_abs i3 vacker_01 i4 vacker_11 i1 vacker_0 i1 vacker_0 Nb Na i) (assign_85_15_1_abs i3 vacker_01 i4 vacker_11 i1 vacker_0 i2 vacker_1 Nb Na i) (assign_85_15_1_abs i3 vacker_01 i4 vacker_11 i2 vacker_1 i1 vacker_0 Nb Na i) (assign_85_15_1_abs i3 vacker_01 i4 vacker_11 i2 vacker_1 i2 vacker_1 Nb Na i) (assign_85_15_1_abs i4 vacker_11 i3 vacker_01 i1 vacker_0 i1 vacker_0 Nb Na i) (assign_85_15_1_abs i4 vacker_11 i3 vacker_01 i1 vacker_0 i2 vacker_1 Nb Na i) (assign_85_15_1_abs i4 vacker_11 i3 vacker_01 i2 vacker_1 i1 vacker_0 Nb Na i) (assign_85_15_1_abs i4 vacker_11 i3 vacker_01 i2 vacker_1 i2 vacker_1 Nb Na i) (assign_85_15_1_abs i4 vacker_11 i4 vacker_11 i1 vacker_0 i1 vacker_0 Nb Na i) (assign_85_15_1_abs i4 vacker_11 i4 vacker_11 i1 vacker_0 i2 vacker_1 Nb Na i) (assign_85_15_1_abs i4 vacker_11 i4 vacker_11 i2 vacker_1 i1 vacker_0 Nb Na i) (assign_85_15_1_abs i4 vacker_11 i4 vacker_11 i2 vacker_1 i2 vacker_1 Nb Na i)) (while_161_16_1_abs i4 vacker_11 i3 vacker_01 i2 vacker_1 i1 vacker_0 Nb Na Na))))
;
;(while)   while((i<(Na+Nb)))
(assert (forall ( (vacker_1 Int) (vacker_0 Int) (vacker_11 Int) (vacker_01 Int) (Nb Int) (Na Int) (i Int) (i1 Int) (i2 Int) (i3 Int) (i4 Int)) (=> (and (=> (= i3 i4) (= vacker_0 vacker_1)) (=> (= i1 i2) (= vacker_01 vacker_11)) (while_161_16_1_abs i3 vacker_0 i3 vacker_0 i1 vacker_01 i1 vacker_01 Nb Na i) (while_161_16_1_abs i3 vacker_0 i3 vacker_0 i1 vacker_01 i2 vacker_11 Nb Na i) (while_161_16_1_abs i3 vacker_0 i3 vacker_0 i2 vacker_11 i1 vacker_01 Nb Na i) (while_161_16_1_abs i3 vacker_0 i3 vacker_0 i2 vacker_11 i2 vacker_11 Nb Na i) (while_161_16_1_abs i3 vacker_0 i4 vacker_1 i1 vacker_01 i1 vacker_01 Nb Na i) (while_161_16_1_abs i3 vacker_0 i4 vacker_1 i1 vacker_01 i2 vacker_11 Nb Na i) (while_161_16_1_abs i3 vacker_0 i4 vacker_1 i2 vacker_11 i1 vacker_01 Nb Na i) (while_161_16_1_abs i3 vacker_0 i4 vacker_1 i2 vacker_11 i2 vacker_11 Nb Na i) (while_161_16_1_abs i4 vacker_1 i3 vacker_0 i1 vacker_01 i1 vacker_01 Nb Na i) (while_161_16_1_abs i4 vacker_1 i3 vacker_0 i1 vacker_01 i2 vacker_11 Nb Na i) (while_161_16_1_abs i4 vacker_1 i3 vacker_0 i2 vacker_11 i1 vacker_01 Nb Na i) (while_161_16_1_abs i4 vacker_1 i3 vacker_0 i2 vacker_11 i2 vacker_11 Nb Na i) (while_161_16_1_abs i4 vacker_1 i4 vacker_1 i1 vacker_01 i1 vacker_01 Nb Na i) (while_161_16_1_abs i4 vacker_1 i4 vacker_1 i1 vacker_01 i2 vacker_11 Nb Na i) (while_161_16_1_abs i4 vacker_1 i4 vacker_1 i2 vacker_11 i1 vacker_01 Nb Na i) (while_161_16_1_abs i4 vacker_1 i4 vacker_1 i2 vacker_11 i2 vacker_11 Nb Na i) (< i (+ Na Nb))) (arrayassign_149_18_5_abs i4 vacker_1 i3 vacker_0 i2 vacker_11 i1 vacker_01 Nb Na i))))
(assert (forall ( (vacker_1 Int) (vacker_0 Int) (vacker_11 Int) (vacker_01 Int) (Nb Int) (Na Int) (i Int) (i1 Int) (i2 Int) (i3 Int) (i4 Int)) (=> (and (=> (= i3 i4) (= vacker_0 vacker_1)) (=> (= i1 i2) (= vacker_01 vacker_11)) (while_161_16_1_abs i3 vacker_0 i3 vacker_0 i1 vacker_01 i1 vacker_01 Nb Na i) (while_161_16_1_abs i3 vacker_0 i3 vacker_0 i1 vacker_01 i2 vacker_11 Nb Na i) (while_161_16_1_abs i3 vacker_0 i3 vacker_0 i2 vacker_11 i1 vacker_01 Nb Na i) (while_161_16_1_abs i3 vacker_0 i3 vacker_0 i2 vacker_11 i2 vacker_11 Nb Na i) (while_161_16_1_abs i3 vacker_0 i4 vacker_1 i1 vacker_01 i1 vacker_01 Nb Na i) (while_161_16_1_abs i3 vacker_0 i4 vacker_1 i1 vacker_01 i2 vacker_11 Nb Na i) (while_161_16_1_abs i3 vacker_0 i4 vacker_1 i2 vacker_11 i1 vacker_01 Nb Na i) (while_161_16_1_abs i3 vacker_0 i4 vacker_1 i2 vacker_11 i2 vacker_11 Nb Na i) (while_161_16_1_abs i4 vacker_1 i3 vacker_0 i1 vacker_01 i1 vacker_01 Nb Na i) (while_161_16_1_abs i4 vacker_1 i3 vacker_0 i1 vacker_01 i2 vacker_11 Nb Na i) (while_161_16_1_abs i4 vacker_1 i3 vacker_0 i2 vacker_11 i1 vacker_01 Nb Na i) (while_161_16_1_abs i4 vacker_1 i3 vacker_0 i2 vacker_11 i2 vacker_11 Nb Na i) (while_161_16_1_abs i4 vacker_1 i4 vacker_1 i1 vacker_01 i1 vacker_01 Nb Na i) (while_161_16_1_abs i4 vacker_1 i4 vacker_1 i1 vacker_01 i2 vacker_11 Nb Na i) (while_161_16_1_abs i4 vacker_1 i4 vacker_1 i2 vacker_11 i1 vacker_01 Nb Na i) (while_161_16_1_abs i4 vacker_1 i4 vacker_1 i2 vacker_11 i2 vacker_11 Nb Na i) (not (< i (+ Na Nb)))) (assign_206_23_8_abs i4 vacker_1 i3 vacker_0 i2 vacker_11 i1 vacker_01 Nb Na i))))
;
;(aassign) a[i] := b[(i-Na)]
(assert (forall ( (i Int) (Na Int) (Nb Int) (vacker_1 Int) (vacker_0 Int) (vacker_2 Int) (vacker_11 Int) (vacker_01 Int) (i1 Int) (i2 Int) (i3 Int) (i4 Int)) (=> (and (=> (= i1 i2) (= vacker_0 vacker_1)) (=> (= (- i Na) i3) (= vacker_01 vacker_11)) (=> (= (- i Na) i4) (= vacker_01 vacker_2)) (=> (= i3 i4) (= vacker_11 vacker_2)) (arrayassign_149_18_5_abs (- i Na) vacker_01 (- i Na) vacker_01 i1 vacker_0 i1 vacker_0 Nb Na i) (arrayassign_149_18_5_abs (- i Na) vacker_01 (- i Na) vacker_01 i1 vacker_0 i2 vacker_1 Nb Na i) (arrayassign_149_18_5_abs (- i Na) vacker_01 (- i Na) vacker_01 i2 vacker_1 i1 vacker_0 Nb Na i) (arrayassign_149_18_5_abs (- i Na) vacker_01 (- i Na) vacker_01 i2 vacker_1 i2 vacker_1 Nb Na i) (arrayassign_149_18_5_abs (- i Na) vacker_01 i3 vacker_11 i1 vacker_0 i1 vacker_0 Nb Na i) (arrayassign_149_18_5_abs (- i Na) vacker_01 i3 vacker_11 i1 vacker_0 i2 vacker_1 Nb Na i) (arrayassign_149_18_5_abs (- i Na) vacker_01 i3 vacker_11 i2 vacker_1 i1 vacker_0 Nb Na i) (arrayassign_149_18_5_abs (- i Na) vacker_01 i3 vacker_11 i2 vacker_1 i2 vacker_1 Nb Na i) (arrayassign_149_18_5_abs (- i Na) vacker_01 i4 vacker_2 i1 vacker_0 i1 vacker_0 Nb Na i) (arrayassign_149_18_5_abs (- i Na) vacker_01 i4 vacker_2 i1 vacker_0 i2 vacker_1 Nb Na i) (arrayassign_149_18_5_abs (- i Na) vacker_01 i4 vacker_2 i2 vacker_1 i1 vacker_0 Nb Na i) (arrayassign_149_18_5_abs (- i Na) vacker_01 i4 vacker_2 i2 vacker_1 i2 vacker_1 Nb Na i) (arrayassign_149_18_5_abs i3 vacker_11 (- i Na) vacker_01 i1 vacker_0 i1 vacker_0 Nb Na i) (arrayassign_149_18_5_abs i3 vacker_11 (- i Na) vacker_01 i1 vacker_0 i2 vacker_1 Nb Na i) (arrayassign_149_18_5_abs i3 vacker_11 (- i Na) vacker_01 i2 vacker_1 i1 vacker_0 Nb Na i) (arrayassign_149_18_5_abs i3 vacker_11 (- i Na) vacker_01 i2 vacker_1 i2 vacker_1 Nb Na i) (arrayassign_149_18_5_abs i3 vacker_11 i3 vacker_11 i1 vacker_0 i1 vacker_0 Nb Na i) (arrayassign_149_18_5_abs i3 vacker_11 i3 vacker_11 i1 vacker_0 i2 vacker_1 Nb Na i) (arrayassign_149_18_5_abs i3 vacker_11 i3 vacker_11 i2 vacker_1 i1 vacker_0 Nb Na i) (arrayassign_149_18_5_abs i3 vacker_11 i3 vacker_11 i2 vacker_1 i2 vacker_1 Nb Na i) (arrayassign_149_18_5_abs i3 vacker_11 i4 vacker_2 i1 vacker_0 i1 vacker_0 Nb Na i) (arrayassign_149_18_5_abs i3 vacker_11 i4 vacker_2 i1 vacker_0 i2 vacker_1 Nb Na i) (arrayassign_149_18_5_abs i3 vacker_11 i4 vacker_2 i2 vacker_1 i1 vacker_0 Nb Na i) (arrayassign_149_18_5_abs i3 vacker_11 i4 vacker_2 i2 vacker_1 i2 vacker_1 Nb Na i) (arrayassign_149_18_5_abs i4 vacker_2 (- i Na) vacker_01 i1 vacker_0 i1 vacker_0 Nb Na i) (arrayassign_149_18_5_abs i4 vacker_2 (- i Na) vacker_01 i1 vacker_0 i2 vacker_1 Nb Na i) (arrayassign_149_18_5_abs i4 vacker_2 (- i Na) vacker_01 i2 vacker_1 i1 vacker_0 Nb Na i) (arrayassign_149_18_5_abs i4 vacker_2 (- i Na) vacker_01 i2 vacker_1 i2 vacker_1 Nb Na i) (arrayassign_149_18_5_abs i4 vacker_2 i3 vacker_11 i1 vacker_0 i1 vacker_0 Nb Na i) (arrayassign_149_18_5_abs i4 vacker_2 i3 vacker_11 i1 vacker_0 i2 vacker_1 Nb Na i) (arrayassign_149_18_5_abs i4 vacker_2 i3 vacker_11 i2 vacker_1 i1 vacker_0 Nb Na i) (arrayassign_149_18_5_abs i4 vacker_2 i3 vacker_11 i2 vacker_1 i2 vacker_1 Nb Na i) (arrayassign_149_18_5_abs i4 vacker_2 i4 vacker_2 i1 vacker_0 i1 vacker_0 Nb Na i) (arrayassign_149_18_5_abs i4 vacker_2 i4 vacker_2 i1 vacker_0 i2 vacker_1 Nb Na i) (arrayassign_149_18_5_abs i4 vacker_2 i4 vacker_2 i2 vacker_1 i1 vacker_0 Nb Na i) (arrayassign_149_18_5_abs i4 vacker_2 i4 vacker_2 i2 vacker_1 i2 vacker_1 Nb Na i)) (assign_158_19_5_abs i4 vacker_2 i3 vacker_11 i2 (ite (= i i2) vacker_01 vacker_1) i1 (ite (= i i1) vacker_01 vacker_0) Nb Na i))))
;
;(assign)  i := (i+1)
(assert (forall ( (i Int) (Na Int) (Nb Int) (vacker_1 Int) (vacker_0 Int) (vacker_11 Int) (vacker_01 Int) (i1 Int) (i2 Int) (i3 Int) (i4 Int)) (=> (and (=> (= i1 i2) (= vacker_0 vacker_1)) (=> (= i3 i4) (= vacker_01 vacker_11)) (assign_158_19_5_abs i3 vacker_01 i3 vacker_01 i1 vacker_0 i1 vacker_0 Nb Na i) (assign_158_19_5_abs i3 vacker_01 i3 vacker_01 i1 vacker_0 i2 vacker_1 Nb Na i) (assign_158_19_5_abs i3 vacker_01 i3 vacker_01 i2 vacker_1 i1 vacker_0 Nb Na i) (assign_158_19_5_abs i3 vacker_01 i3 vacker_01 i2 vacker_1 i2 vacker_1 Nb Na i) (assign_158_19_5_abs i3 vacker_01 i4 vacker_11 i1 vacker_0 i1 vacker_0 Nb Na i) (assign_158_19_5_abs i3 vacker_01 i4 vacker_11 i1 vacker_0 i2 vacker_1 Nb Na i) (assign_158_19_5_abs i3 vacker_01 i4 vacker_11 i2 vacker_1 i1 vacker_0 Nb Na i) (assign_158_19_5_abs i3 vacker_01 i4 vacker_11 i2 vacker_1 i2 vacker_1 Nb Na i) (assign_158_19_5_abs i4 vacker_11 i3 vacker_01 i1 vacker_0 i1 vacker_0 Nb Na i) (assign_158_19_5_abs i4 vacker_11 i3 vacker_01 i1 vacker_0 i2 vacker_1 Nb Na i) (assign_158_19_5_abs i4 vacker_11 i3 vacker_01 i2 vacker_1 i1 vacker_0 Nb Na i) (assign_158_19_5_abs i4 vacker_11 i3 vacker_01 i2 vacker_1 i2 vacker_1 Nb Na i) (assign_158_19_5_abs i4 vacker_11 i4 vacker_11 i1 vacker_0 i1 vacker_0 Nb Na i) (assign_158_19_5_abs i4 vacker_11 i4 vacker_11 i1 vacker_0 i2 vacker_1 Nb Na i) (assign_158_19_5_abs i4 vacker_11 i4 vacker_11 i2 vacker_1 i1 vacker_0 Nb Na i) (assign_158_19_5_abs i4 vacker_11 i4 vacker_11 i2 vacker_1 i2 vacker_1 Nb Na i)) (while_161_16_1_abs i4 vacker_11 i3 vacker_01 i2 vacker_1 i1 vacker_0 Nb Na (+ i 1)))))
;
;(assign)  i := Na
(assert (forall ( (i Int) (Na Int) (Nb Int) (vacker_1 Int) (vacker_0 Int) (vacker_11 Int) (vacker_01 Int) (i1 Int) (i2 Int) (i3 Int) (i4 Int)) (=> (and (=> (= i1 i2) (= vacker_0 vacker_1)) (=> (= i3 i4) (= vacker_01 vacker_11)) (assign_206_23_8_abs i3 vacker_01 i3 vacker_01 i1 vacker_0 i1 vacker_0 Nb Na i) (assign_206_23_8_abs i3 vacker_01 i3 vacker_01 i1 vacker_0 i2 vacker_1 Nb Na i) (assign_206_23_8_abs i3 vacker_01 i3 vacker_01 i2 vacker_1 i1 vacker_0 Nb Na i) (assign_206_23_8_abs i3 vacker_01 i3 vacker_01 i2 vacker_1 i2 vacker_1 Nb Na i) (assign_206_23_8_abs i3 vacker_01 i4 vacker_11 i1 vacker_0 i1 vacker_0 Nb Na i) (assign_206_23_8_abs i3 vacker_01 i4 vacker_11 i1 vacker_0 i2 vacker_1 Nb Na i) (assign_206_23_8_abs i3 vacker_01 i4 vacker_11 i2 vacker_1 i1 vacker_0 Nb Na i) (assign_206_23_8_abs i3 vacker_01 i4 vacker_11 i2 vacker_1 i2 vacker_1 Nb Na i) (assign_206_23_8_abs i4 vacker_11 i3 vacker_01 i1 vacker_0 i1 vacker_0 Nb Na i) (assign_206_23_8_abs i4 vacker_11 i3 vacker_01 i1 vacker_0 i2 vacker_1 Nb Na i) (assign_206_23_8_abs i4 vacker_11 i3 vacker_01 i2 vacker_1 i1 vacker_0 Nb Na i) (assign_206_23_8_abs i4 vacker_11 i3 vacker_01 i2 vacker_1 i2 vacker_1 Nb Na i) (assign_206_23_8_abs i4 vacker_11 i4 vacker_11 i1 vacker_0 i1 vacker_0 Nb Na i) (assign_206_23_8_abs i4 vacker_11 i4 vacker_11 i1 vacker_0 i2 vacker_1 Nb Na i) (assign_206_23_8_abs i4 vacker_11 i4 vacker_11 i2 vacker_1 i1 vacker_0 Nb Na i) (assign_206_23_8_abs i4 vacker_11 i4 vacker_11 i2 vacker_1 i2 vacker_1 Nb Na i)) (while_289_24_1_abs i4 vacker_11 i3 vacker_01 i2 vacker_1 i1 vacker_0 Nb Na Na))))
;
;(while)   while((i<(Na+Nb)))
(assert (forall ( (vacker_1 Int) (vacker_0 Int) (vacker_11 Int) (vacker_01 Int) (Nb Int) (Na Int) (i Int) (i1 Int) (i2 Int) (i3 Int) (i4 Int)) (=> (and (=> (= i3 i4) (= vacker_0 vacker_1)) (=> (= i1 i2) (= vacker_01 vacker_11)) (while_289_24_1_abs i3 vacker_0 i3 vacker_0 i1 vacker_01 i1 vacker_01 Nb Na i) (while_289_24_1_abs i3 vacker_0 i3 vacker_0 i1 vacker_01 i2 vacker_11 Nb Na i) (while_289_24_1_abs i3 vacker_0 i3 vacker_0 i2 vacker_11 i1 vacker_01 Nb Na i) (while_289_24_1_abs i3 vacker_0 i3 vacker_0 i2 vacker_11 i2 vacker_11 Nb Na i) (while_289_24_1_abs i3 vacker_0 i4 vacker_1 i1 vacker_01 i1 vacker_01 Nb Na i) (while_289_24_1_abs i3 vacker_0 i4 vacker_1 i1 vacker_01 i2 vacker_11 Nb Na i) (while_289_24_1_abs i3 vacker_0 i4 vacker_1 i2 vacker_11 i1 vacker_01 Nb Na i) (while_289_24_1_abs i3 vacker_0 i4 vacker_1 i2 vacker_11 i2 vacker_11 Nb Na i) (while_289_24_1_abs i4 vacker_1 i3 vacker_0 i1 vacker_01 i1 vacker_01 Nb Na i) (while_289_24_1_abs i4 vacker_1 i3 vacker_0 i1 vacker_01 i2 vacker_11 Nb Na i) (while_289_24_1_abs i4 vacker_1 i3 vacker_0 i2 vacker_11 i1 vacker_01 Nb Na i) (while_289_24_1_abs i4 vacker_1 i3 vacker_0 i2 vacker_11 i2 vacker_11 Nb Na i) (while_289_24_1_abs i4 vacker_1 i4 vacker_1 i1 vacker_01 i1 vacker_01 Nb Na i) (while_289_24_1_abs i4 vacker_1 i4 vacker_1 i1 vacker_01 i2 vacker_11 Nb Na i) (while_289_24_1_abs i4 vacker_1 i4 vacker_1 i2 vacker_11 i1 vacker_01 Nb Na i) (while_289_24_1_abs i4 vacker_1 i4 vacker_1 i2 vacker_11 i2 vacker_11 Nb Na i) (< i (+ Na Nb))) (assert_277_26_11_abs i4 vacker_1 i3 vacker_0 i2 vacker_11 i1 vacker_01 Nb Na i))))
(assert (forall ( (vacker_1 Int) (vacker_0 Int) (vacker_11 Int) (vacker_01 Int) (Nb Int) (Na Int) (i Int) (i1 Int) (i2 Int) (i3 Int) (i4 Int)) (=> (and (=> (= i3 i4) (= vacker_0 vacker_1)) (=> (= i1 i2) (= vacker_01 vacker_11)) (while_289_24_1_abs i3 vacker_0 i3 vacker_0 i1 vacker_01 i1 vacker_01 Nb Na i) (while_289_24_1_abs i3 vacker_0 i3 vacker_0 i1 vacker_01 i2 vacker_11 Nb Na i) (while_289_24_1_abs i3 vacker_0 i3 vacker_0 i2 vacker_11 i1 vacker_01 Nb Na i) (while_289_24_1_abs i3 vacker_0 i3 vacker_0 i2 vacker_11 i2 vacker_11 Nb Na i) (while_289_24_1_abs i3 vacker_0 i4 vacker_1 i1 vacker_01 i1 vacker_01 Nb Na i) (while_289_24_1_abs i3 vacker_0 i4 vacker_1 i1 vacker_01 i2 vacker_11 Nb Na i) (while_289_24_1_abs i3 vacker_0 i4 vacker_1 i2 vacker_11 i1 vacker_01 Nb Na i) (while_289_24_1_abs i3 vacker_0 i4 vacker_1 i2 vacker_11 i2 vacker_11 Nb Na i) (while_289_24_1_abs i4 vacker_1 i3 vacker_0 i1 vacker_01 i1 vacker_01 Nb Na i) (while_289_24_1_abs i4 vacker_1 i3 vacker_0 i1 vacker_01 i2 vacker_11 Nb Na i) (while_289_24_1_abs i4 vacker_1 i3 vacker_0 i2 vacker_11 i1 vacker_01 Nb Na i) (while_289_24_1_abs i4 vacker_1 i3 vacker_0 i2 vacker_11 i2 vacker_11 Nb Na i) (while_289_24_1_abs i4 vacker_1 i4 vacker_1 i1 vacker_01 i1 vacker_01 Nb Na i) (while_289_24_1_abs i4 vacker_1 i4 vacker_1 i1 vacker_01 i2 vacker_11 Nb Na i) (while_289_24_1_abs i4 vacker_1 i4 vacker_1 i2 vacker_11 i1 vacker_01 Nb Na i) (while_289_24_1_abs i4 vacker_1 i4 vacker_1 i2 vacker_11 i2 vacker_11 Nb Na i) (not (< i (+ Na Nb)))) (end_abs i4 vacker_1 i3 vacker_0 i2 vacker_11 i1 vacker_01 Nb Na i))))
;
;(assert)  (a[i]==b[(i-Na)])
(assert (forall ( (i Int) (Na Int) (Nb Int) (acker1 Int) (acker Int)) (=> (assert_277_26_11_abs (- i Na) acker (- i Na) acker i acker1 i acker1 Nb Na i) (= acker acker1))))
(assert (forall ( (i Int) (Na Int) (Nb Int) (vacker_1 Int) (vacker_0 Int) (vacker_11 Int) (vacker_01 Int) (i1 Int) (i2 Int) (i3 Int) (i4 Int)) (=> (and (=> (= i1 i2) (= vacker_0 vacker_1)) (=> (= i3 i4) (= vacker_01 vacker_11)) (assert_277_26_11_abs i3 vacker_01 i3 vacker_01 i1 vacker_0 i1 vacker_0 Nb Na i) (assert_277_26_11_abs i3 vacker_01 i3 vacker_01 i1 vacker_0 i2 vacker_1 Nb Na i) (assert_277_26_11_abs i3 vacker_01 i3 vacker_01 i2 vacker_1 i1 vacker_0 Nb Na i) (assert_277_26_11_abs i3 vacker_01 i3 vacker_01 i2 vacker_1 i2 vacker_1 Nb Na i) (assert_277_26_11_abs i3 vacker_01 i4 vacker_11 i1 vacker_0 i1 vacker_0 Nb Na i) (assert_277_26_11_abs i3 vacker_01 i4 vacker_11 i1 vacker_0 i2 vacker_1 Nb Na i) (assert_277_26_11_abs i3 vacker_01 i4 vacker_11 i2 vacker_1 i1 vacker_0 Nb Na i) (assert_277_26_11_abs i3 vacker_01 i4 vacker_11 i2 vacker_1 i2 vacker_1 Nb Na i) (assert_277_26_11_abs i4 vacker_11 i3 vacker_01 i1 vacker_0 i1 vacker_0 Nb Na i) (assert_277_26_11_abs i4 vacker_11 i3 vacker_01 i1 vacker_0 i2 vacker_1 Nb Na i) (assert_277_26_11_abs i4 vacker_11 i3 vacker_01 i2 vacker_1 i1 vacker_0 Nb Na i) (assert_277_26_11_abs i4 vacker_11 i3 vacker_01 i2 vacker_1 i2 vacker_1 Nb Na i) (assert_277_26_11_abs i4 vacker_11 i4 vacker_11 i1 vacker_0 i1 vacker_0 Nb Na i) (assert_277_26_11_abs i4 vacker_11 i4 vacker_11 i1 vacker_0 i2 vacker_1 Nb Na i) (assert_277_26_11_abs i4 vacker_11 i4 vacker_11 i2 vacker_1 i1 vacker_0 Nb Na i) (assert_277_26_11_abs i4 vacker_11 i4 vacker_11 i2 vacker_1 i2 vacker_1 Nb Na i)) (assign_286_27_11_abs i4 vacker_11 i3 vacker_01 i2 vacker_1 i1 vacker_0 Nb Na i))))
;
;(assign)  i := (i+1)
(assert (forall ( (i Int) (Na Int) (Nb Int) (vacker_1 Int) (vacker_0 Int) (vacker_11 Int) (vacker_01 Int) (i1 Int) (i2 Int) (i3 Int) (i4 Int)) (=> (and (=> (= i1 i2) (= vacker_0 vacker_1)) (=> (= i3 i4) (= vacker_01 vacker_11)) (assign_286_27_11_abs i3 vacker_01 i3 vacker_01 i1 vacker_0 i1 vacker_0 Nb Na i) (assign_286_27_11_abs i3 vacker_01 i3 vacker_01 i1 vacker_0 i2 vacker_1 Nb Na i) (assign_286_27_11_abs i3 vacker_01 i3 vacker_01 i2 vacker_1 i1 vacker_0 Nb Na i) (assign_286_27_11_abs i3 vacker_01 i3 vacker_01 i2 vacker_1 i2 vacker_1 Nb Na i) (assign_286_27_11_abs i3 vacker_01 i4 vacker_11 i1 vacker_0 i1 vacker_0 Nb Na i) (assign_286_27_11_abs i3 vacker_01 i4 vacker_11 i1 vacker_0 i2 vacker_1 Nb Na i) (assign_286_27_11_abs i3 vacker_01 i4 vacker_11 i2 vacker_1 i1 vacker_0 Nb Na i) (assign_286_27_11_abs i3 vacker_01 i4 vacker_11 i2 vacker_1 i2 vacker_1 Nb Na i) (assign_286_27_11_abs i4 vacker_11 i3 vacker_01 i1 vacker_0 i1 vacker_0 Nb Na i) (assign_286_27_11_abs i4 vacker_11 i3 vacker_01 i1 vacker_0 i2 vacker_1 Nb Na i) (assign_286_27_11_abs i4 vacker_11 i3 vacker_01 i2 vacker_1 i1 vacker_0 Nb Na i) (assign_286_27_11_abs i4 vacker_11 i3 vacker_01 i2 vacker_1 i2 vacker_1 Nb Na i) (assign_286_27_11_abs i4 vacker_11 i4 vacker_11 i1 vacker_0 i1 vacker_0 Nb Na i) (assign_286_27_11_abs i4 vacker_11 i4 vacker_11 i1 vacker_0 i2 vacker_1 Nb Na i) (assign_286_27_11_abs i4 vacker_11 i4 vacker_11 i2 vacker_1 i1 vacker_0 Nb Na i) (assign_286_27_11_abs i4 vacker_11 i4 vacker_11 i2 vacker_1 i2 vacker_1 Nb Na i)) (while_289_24_1_abs i4 vacker_11 i3 vacker_01 i2 vacker_1 i1 vacker_0 Nb Na (+ i 1)))))
(check-sat)
